&BANDS
     outdir = './outdir/',
     prefix = 'si',
     filband= 'si.band',
/
