&dos
   outdir = './',
   prefix='si',
   fildos='si.dos',
/
