&CONTROL
  calculation = 'scf',
  restart_mode = 'from_scratch',
  prefix = 'si',
  outdir = './outdir/'
  pseudo_dir = './Pseudopotential/'
/

&SYSTEM
  ibrav =  2,
  celldm(1) = 10.2076,
  nat =  2,
  ntyp = 1,
  ecutwfc = 60,
  ecutrho = 720,
  nbnd = 8,
  occupations = 'smearing',
  smearing = 'gaussian',
  degauss = 0.005
/

&ELECTRONS
  conv_thr = 1e-8,
  mixing_beta = 0.6
/

ATOMIC_SPECIES
  Si 28.086 Si.pbe-n-rrkjus_psl.1.0.0.UPF

ATOMIC_POSITIONS (alat)
  Si 0.0 0.0 0.0
  Si 0.25 0.25 0.25

K_POINTS (automatic)
  12 12 12 0 0 0